0	f_tot	135703.325	f_el	0	von_mises_stress	0
12800	f_tot	135700.3159	f_el	2.916482811	von_mises_stress	2370.040754
12840	f_tot	135693.5312	f_el	9.403098632	von_mises_stress	6311.487782
12880	f_tot	135682.6094	f_el	19.85297433	von_mises_stress	11946.2474
12920	f_tot	135667.8588	f_el	33.99174136	von_mises_stress	18948.88332
12960	f_tot	135649.4009	f_el	51.60999018	von_mises_stress	27078.43391
13000	f_tot	135627.302	f_el	72.69410035	von_mises_stress	36349.19358
13040	f_tot	135601.726	f_el	97.10237612	von_mises_stress	46477.45975
